42-6-22-47-5-26-31-10-0-21-7-25-30-27-2-35-34-19-1-15-28-20-33-49-8-37-4-48-29-9-38-32-44-14-43-36-16-11-45-50-46-3-41-39-18-40-12-17-24-13-23 449

33-49-20-28-1-19-34-35-2-27-30-25-7-21-0-31-26-47-22-6-42-23-24-13-5-50-45-10-37-15-8-48-4-11-46-3-17-12-40-18-39-41-43-16-36-14-44-32-38-9-29 442

10-31-45-50-11-46-3-17-13-24-12-40-18-39-41-16-36-43-14-44-32-38-9-29-33-20-28-19-34-35-2-27-30-7-25-6-22-42-23-5-47-26-0-21-1-15-49-8-48-4-37 434